NumGames = 7;
NumReferees = 29;
NumFields = 4;
game_id = [3506, 3507, 3559, 3578, 3579, 3580, 3637];
game_start = [720, 720, 840, 600, 900, 870, 540];
game_end = [840, 840, 960, 720, 1020, 990, 660];
difficulty = [2, 2, 2, 1, 1, 1, 1];
game_field = [1, 2, 2, 3, 4, 3, 2];
referee_id = [1206, 2468, 3256, 3260, 3261, 3262, 3267, 3276, 3475, 3524, 3526, 3533, 3613, 3614, 3640, 7484, 7486, 7490, 7496, 7498, 7500, 7506, 7533, 7535, 7540, 7550, 7552, 7567, 7568];
main_exp = [277, 124, 45, 147, 36, 105, 36, 7, 25, 12, 57, 31, 0, 6, 1, 1, 14, 2, 0, 2, 0, 1, 6, 0, 0, 2, 1, 4, 9];
assist_exp = [151, 81, 51, 99, 66, 79, 133, 13, 27, 61, 106, 43, 0, 44, 32, 17, 66, 12, 15, 24, 9, 42, 24, 0, 6, 15, 8, 25, 0];
available_slots = array3d(1..NumReferees, 1..3, 1..2,[
  720,1380, 0,0, 0,0,
  540,720, 0,0, 0,0,
  0,1440, 0,0, 0,0,
  0,1440, 0,0, 0,0,
  720,840, 0,0, 0,0,
  720,900, 0,0, 0,0,
  0,1440, 0,0, 0,0,
  0,1440, 1140,2580, 0,0,
  720,840, 0,0, 0,0,
  0,1440, 0,0, 0,0,
  0,1440, 0,0, 0,0,
  0,1440, 0,0, 0,0,
  570,720, 0,0, 0,0,
  720,900, 0,0, 0,0,
  840,1380, 0,0, 0,0,
  0,1440, 0,0, 0,0,
  0,1440, 0,0, 0,0,
  600,750, 840,1080, 0,0,
  0,1440, 0,0, 0,0,
  0,1020, 0,0, 0,0,
  687,1402, 0,0, 0,0,
  0,1440, 0,0, 0,0,
  0,1440, 0,0, 0,0,
  720,840, 0,0, 0,0,
  720,840, 870,990, 0,0,
  0,1440, 0,0, 0,0,
  600,840, 0,0, 0,0,
  840,1430, 0,0, 0,0,
  0,1440, 0,0, 0,0,
]);